c WARNING: for repeatability, setting FPU to use double precision
d VARIABLES            72356        
d CONSTRAINTS          289855       
c ============================[ Problem Statistics ]=============================
c |                                                                             |
c |  Number of variables:         72356                                         |
c |  Number of clauses:          289855                                         |
c |  Parse time:                   0.04 s                                       |
c |                                                                             |
c ============================[ Search Statistics ]==============================
c | Conflicts |          ORIGINAL         |          LEARNT          | Progress |
c |           |    Vars  Clauses Literals |    Limit  Clauses Lit/Cl |          |
c ===============================================================================
c |       100 |   53084   240225   587953 |    88082      100     16 | 26.635 % |
c |       250 |   53084   240225   587953 |    96890      250     26 | 26.635 % |
c |       475 |   53084   240225   587953 |   106579      475     51 | 26.635 % |
c |       812 |   53084   240225   587953 |   117237      812     70 | 26.635 % |
c |      1318 |   53084   240225   587953 |   128961     1318    123 | 26.635 % |
c |      2077 |   53084   240225   587953 |   141857     2077    113 | 26.635 % |
c |      3216 |   53084   240225   587953 |   156043     3216    112 | 26.635 % |
c |      4924 |   53084   240225   587953 |   171647     4924    118 | 26.635 % |
c |      7486 |   53084   240225   587953 |   188812     7486    112 | 26.635 % |
c |     11330 |   53084   240225   587953 |   207693    11330    107 | 26.635 % |
c |     17096 |   53084   240225   587953 |   228463    17096    109 | 26.635 % |
c |     25745 |   53084   240225   587953 |   251309    25745     98 | 26.635 % |
c |     38719 |   53084   240225   587953 |   276440    38719     87 | 26.635 % |
c |     58180 |   53084   240225   587953 |   304084    58180     81 | 26.635 % |
c |     87372 |   53084   240225   587953 |   334493    87372     86 | 26.635 % |
c |    131161 |   53084   240225   587953 |   367942   131161     93 | 26.635 % |
c |    196845 |   53084   240225   587953 |   404736   196845     93 | 26.635 % |
c |    295371 |   53084   240225   587953 |   445210   295371     94 | 26.635 % |
c |    443160 |   53084   240225   587953 |   489731   443160     91 | 26.635 % |
c |    664843 |   53084   240225   587953 |   538704   181811    103 | 26.635 % |
c |    997368 |   53084   240225   587953 |   592575   514336    108 | 26.635 % |
c |   1496156 |   53084   240225   587953 |   651832   429309    102 | 26.635 % |
c ===============================================================================
c restarts              : 3196
c conflicts             : 1677557        (941 /sec)
c decisions             : 3091040        (0.00 % random) (1734 /sec)
c propagations          : 1769358194     (992759 /sec)
c conflict literals     : 169198139      (38.46 % deleted)
d RESTARTS             3196
d FAILURES             1677557      
d NODES                3091040      
d BACKTRACKS           3091040      
d PROPAGATIONS         1769358194   
d NOGOODSIZE           100.86 
d MEMORY               541.00 
d TIME                 1782.26 

s UNKNOWN
